* ENCODING=ISO-8859-1
NAME          CPLEX
ROWS
 N  obj1    
 G  c1      
 G  c2      
 G  c3      
 G  c4      
 G  c5      
 G  c6      
 G  c7      
 G  c8      
 G  c9      
 G  c10     
 G  c11     
 G  c12     
 G  c13     
 G  c14     
 G  c15     
 G  c16     
 G  c17     
 G  c18     
 G  c19     
 G  c20     
 G  c21     
 G  c22     
 G  c23     
 G  c24     
 G  c25     
 G  c26     
 G  c27     
 G  c28     
 G  c29     
 G  c30     
COLUMNS
    MARK0000  'MARKER'                 'INTORG'
    x1        obj1                            1
    x1        c1                            348
    x1        c7                            800
    x1        c14                           174
    x2        obj1                            1
    x2        c8                            633
    x2        c26                           644
    x2        c29                           477
    x2        c30                           676
    x3        obj1                            1
    x4        obj1                            1
    x4        c9                            191
    x4        c23                           845
    x4        c24                           342
    x5        obj1                            1
    x5        c17                           473
    x6        obj1                            1
    x6        c4                            456
    x6        c19                           448
    x6        c27                           408
    x7        obj1                            1
    x7        c2                            594
    x7        c4                            480
    x7        c6                            214
    x7        c11                           478
    x7        c15                           256
    x7        c22                           277
    x8        obj1                            1
    x8        c18                           474
    x9        obj1                            1
    x10       obj1                            1
    x10       c6                            986
    x11       obj1                            1
    x11       c11                           736
    x11       c13                           699
    x11       c17                           302
    x12       obj1                            1
    x12       c23                           542
    x12       c29                           256
    x13       obj1                            1
    x13       c1                            329
    x13       c8                            586
    x13       c12                           364
    x13       c18                           598
    x13       c22                           518
    x14       obj1                            1
    x14       c13                           899
    x14       c15                           640
    x14       c21                           640
    x14       c29                           190
    x15       obj1                            1
    x15       c1                            899
    x15       c8                            390
    x15       c18                           949
    x16       obj1                            1
    x16       c10                           363
    x16       c25                           764
    x16       c30                           256
    x17       obj1                            1
    x17       c14                           604
    x17       c16                           638
    x17       c18                           356
    x17       c28                           499
    x18       obj1                            1
    x18       c10                           974
    x18       c11                           733
    x18       c28                           805
    x19       obj1                            1
    x19       c3                            952
    x19       c8                            540
    x19       c11                           858
    x19       c24                           340
    x19       c25                           261
    x19       c27                           695
    x20       obj1                            1
    x20       c11                           907
    x20       c26                           221
    x20       c28                           162
    x21       obj1                            1
    x21       c8                            373
    x21       c19                           280
    x21       c20                           646
    x21       c27                           921
    x22       obj1                            1
    x22       c9                            519
    x22       c16                           176
    x22       c21                           507
    x23       obj1                            1
    x23       c6                            571
    x24       obj1                            1
    x24       c3                            447
    x24       c5                            838
    x24       c12                           286
    x24       c14                           305
    x24       c22                           630
    x24       c26                           691
    x24       c27                           949
    x25       obj1                            1
    x25       c2                            167
    x25       c6                            375
    x25       c8                            307
    x25       c19                           110
    x25       c24                           852
    x26       obj1                            1
    x26       c7                            758
    x26       c13                           910
    x27       obj1                            1
    x27       c2                            249
    x27       c3                            575
    x27       c15                           498
    x27       c30                           918
    x28       obj1                            1
    x28       c5                            863
    x28       c14                           876
    x28       c15                           506
    x29       obj1                            1
    x29       c3                            126
    x29       c8                            692
    x29       c14                           546
    x29       c21                           722
    x30       obj1                            1
    x30       c2                            183
    x30       c16                           116
    x30       c29                           603
    x31       obj1                            1
    x31       c4                            226
    x31       c7                            224
    x31       c22                           865
    x32       obj1                            1
    x32       c13                           820
    x33       obj1                            1
    x33       c3                            452
    x33       c13                           565
    x33       c16                           699
    x34       obj1                            1
    x34       c3                            499
    x34       c12                           465
    x34       c15                           786
    x34       c27                           779
    x35       obj1                            1
    x35       c9                            959
    x35       c25                           387
    x35       c29                           661
    x36       obj1                            1
    x36       c11                           465
    x37       obj1                            1
    x37       c9                            379
    x37       c11                           388
    x37       c15                           254
    x37       c17                           231
    x37       c29                           392
    x38       obj1                            1
    x38       c2                            769
    x38       c13                           358
    x38       c23                           783
    x39       obj1                            1
    x39       c1                            290
    x39       c7                            965
    x39       c11                           529
    x39       c15                           800
    x39       c16                           127
    x39       c19                           115
    x40       obj1                            1
    x40       c8                            959
    x40       c19                           196
    x40       c26                           971
    x41       obj1                            1
    x41       c5                            539
    x41       c20                           557
    x41       c22                           762
    x41       c27                           475
    x42       obj1                            1
    x42       c1                            504
    x42       c6                            351
    x43       obj1                            1
    x43       c10                           689
    x44       obj1                            1
    x44       c9                            470
    x44       c16                           239
    x45       obj1                            1
    x45       c2                            802
    x45       c6                            759
    x45       c12                           282
    x45       c15                           685
    x45       c26                           745
    x46       obj1                            1
    x46       c2                            815
    x46       c25                           537
    x46       c29                           620
    x47       obj1                            1
    x47       c5                            364
    x47       c18                           315
    x47       c29                           145
    x48       obj1                            1
    x48       c1                            237
    x48       c3                            986
    x48       c16                           804
    x48       c21                           258
    x48       c28                           882
    x49       obj1                            1
    x49       c16                           444
    x49       c17                           309
    x49       c27                           815
    x50       obj1                            1
    x50       c2                            378
    x50       c5                            489
    x50       c27                           922
    x51       obj1                            1
    x51       c1                            732
    x51       c4                            101
    x51       c19                           860
    x52       obj1                            1
    x52       c8                            874
    x52       c12                           903
    x52       c18                           961
    x52       c26                           221
    x52       c29                           572
    x53       obj1                            1
    x53       c9                            205
    x53       c16                           868
    x53       c20                           129
    x53       c22                           132
    x54       obj1                            1
    x54       c9                            355
    x54       c15                           729
    x54       c19                           291
    x55       obj1                            1
    x55       c12                           529
    x56       obj1                            1
    x56       c2                            856
    x56       c20                           572
    x56       c22                           338
    x57       obj1                            1
    x57       c1                            545
    x57       c12                           153
    x57       c21                           426
    x57       c25                           811
    x58       obj1                            1
    x58       c11                           740
    x59       obj1                            1
    x59       c20                           589
    x60       obj1                            1
    x60       c1                            189
    x60       c17                           354
    x60       c22                           307
    MARK0001  'MARKER'                 'INTEND'
RHS
    rhs       c1                           2037
    rhs       c2                           2407
    rhs       c3                           2019
    rhs       c4                            632
    rhs       c5                           1547
    rhs       c6                           1628
    rhs       c7                           1374
    rhs       c8                           2677
    rhs       c9                           1539
    rhs       c10                          1013
    rhs       c11                          2917
    rhs       c12                          1491
    rhs       c13                          2126
    rhs       c14                          1253
    rhs       c15                          2577
    rhs       c16                          2056
    rhs       c17                           835
    rhs       c18                          1827
    rhs       c19                          1150
    rhs       c20                          1247
    rhs       c21                          1277
    rhs       c22                          1915
    rhs       c23                          1085
    rhs       c24                           767
    rhs       c25                          1380
    rhs       c26                          1747
    rhs       c27                          2982
    rhs       c28                          1174
    rhs       c29                          1958
    rhs       c30                           925
BOUNDS
 LI bnd       x1        0
 LI bnd       x2        0
 LI bnd       x3        0
 LI bnd       x4        0
 LI bnd       x5        0
 LI bnd       x6        0
 LI bnd       x7        0
 LI bnd       x8        0
 LI bnd       x9        0
 LI bnd       x10       0
 LI bnd       x11       0
 LI bnd       x12       0
 LI bnd       x13       0
 LI bnd       x14       0
 LI bnd       x15       0
 LI bnd       x16       0
 LI bnd       x17       0
 LI bnd       x18       0
 LI bnd       x19       0
 LI bnd       x20       0
 LI bnd       x21       0
 LI bnd       x22       0
 LI bnd       x23       0
 LI bnd       x24       0
 LI bnd       x25       0
 LI bnd       x26       0
 LI bnd       x27       0
 LI bnd       x28       0
 LI bnd       x29       0
 LI bnd       x30       0
 LI bnd       x31       0
 LI bnd       x32       0
 LI bnd       x33       0
 LI bnd       x34       0
 LI bnd       x35       0
 LI bnd       x36       0
 LI bnd       x37       0
 LI bnd       x38       0
 LI bnd       x39       0
 LI bnd       x40       0
 LI bnd       x41       0
 LI bnd       x42       0
 LI bnd       x43       0
 LI bnd       x44       0
 LI bnd       x45       0
 LI bnd       x46       0
 LI bnd       x47       0
 LI bnd       x48       0
 LI bnd       x49       0
 LI bnd       x50       0
 LI bnd       x51       0
 LI bnd       x52       0
 LI bnd       x53       0
 LI bnd       x54       0
 LI bnd       x55       0
 LI bnd       x56       0
 LI bnd       x57       0
 LI bnd       x58       0
 LI bnd       x59       0
 LI bnd       x60       0
ENDATA
